33
100
80	1
79	1
76	2
74	1
73	2
70	2
69	2
67	3
65	2
64	1
63	2
60	1
57	1
56	2
55	2
51	3
50	1
49	1
48	2
45	2
44	1
41	1
40	1
38	2
35	2
34	1
28	1
27	1
26	1
24	1
23	1
21	1
20	2
